LAMMPS data file

    547 atoms

  5 atom types
    -0.438601267    11.482098733 xlo xhi
    -0.702320296    14.143149663 ylo yhi
     0.150542790    36.247005312 zlo zhi
    -0.735934373    -0.030254455    -1.112017539 xy xz yz

Masses

   1  40.079800 # ca+
   2  28.086000 # sz
   3  15.999400 # o
   4   1.007970 # h*
   5  12.011150 # cp

Atoms # full

      1                      3                      4.838600181     0.438025215     2.683769831
      2                      3                      1.571924320     2.245708834     2.536821250
      3                      3                      4.569469617     3.072239217     2.745133768
      4                      3                      5.085309189     1.939729677     0.497950300
      5                      3                      2.714674306     0.515223771     0.545561496
      6                      3                      0.462147309     0.003162655    35.115115861
      7                      3                      7.073466350     2.027194272     2.447338191
      8                      3                     10.855861356     1.742436698     3.483630701
      9                      3                      9.177665144     1.349069452     0.865303704
     10                      3                     10.564377930     2.156850011    35.478931814
     11                      3                      3.782633544     3.312613281    36.143929332
     12                      3                      4.585448686     5.541912778     3.502617425
     13                      3                      4.472312975     7.977004530     2.888869766
     14                      3                      1.182252201     5.301991428     2.727879673
     15                      3                      2.137450357     7.136687960     0.329740920
     16                      3                     -0.294455528     5.416716527     0.509284580
     17                      3                      6.612061713     6.181600533     0.747737620
     18                      3                     10.843641498     6.818329267     2.610457974
     19                      3                     10.644366959     4.171687131     2.715426403
     20                      3                      7.887535193     4.562217118     2.511878615
     21                      3                      8.284843768     8.230115021     0.841949311
     22                      3                      4.872357911     8.936491488     0.641938973
     23                      3                      1.267268152     9.250742446     2.360742847
     24                      3                      4.054948308    12.951607343     3.642527201
     25                      3                      1.903804194    10.922288636    35.918117120
     26                      3                      4.189995587    10.592009258     2.708784659
     27                      3                      1.004203581    12.918575576     2.738528120
     28                      3                      5.247466359    13.016726383     0.738930090
     29                      3                     -0.528803509    12.836789499     0.542168431
     30                      3                     11.205234321    -0.621442996     2.593384361
     31                      3                     10.574333585     9.176495796     3.522723138
     32                      3                      6.713495211     9.571421978     2.598690537
     33                      3                     10.484581506    11.636820900     2.750078979
     34                      3                      7.458467398    12.167871242     2.501446745
     35                      3                      5.870012171     9.792059901    35.111470121
     36                      3                      3.710215670     0.040579869     5.123672157
     37                      3                      2.366095051     1.842736372     7.333784587
     38                      3                      0.985218344     3.548078211     8.913833771
     39                      3                      0.240106174     3.595414083     4.925935894
     40                      3                      0.455335380    -0.019057592     4.940663239
     41                      3                      5.613559982     1.742759186     7.742684986
     42                      3                      3.391331925     3.740573611     5.092159971
     43                      3                     -0.417334910     1.820542220     7.443662131
     44                      3                      6.474768664    -0.121214722     4.793389790
     45                      3                      8.326208730     1.726126957     7.228202519
     46                      3                      9.668405942    -0.183922137     4.882475788
     47                      3                      7.239236329    -0.177378960     8.796556459
     48                      3                      9.417712713     3.507781073     5.002568623
     49                      3                      6.110506127     3.700571049     4.878974434
     50                      3                      2.203964294     5.454987236     7.474993835
     51                      3                      3.335752038     7.272545406     5.200918525
     52                      3                      0.104320905     7.356912475     4.942612447
     53                      3                      5.355209524     5.546235694     7.442434852
     54                      3                      2.006112546     9.188614291     7.353096179
     55                      3                     -0.525374231     5.442561493     7.674498823
     56                      3                      6.123192447     7.277862074     4.896300722
     57                      3                      8.147031633     5.473542254     7.197484455
     58                      3                      6.887906004     7.245318819     8.794354576
     59                      3                      9.305951426     7.240147266     4.887384903
     60                      3                     -0.779121940     9.219932716     7.462179601
     61                      3                      7.966734004     9.157237707     7.237226628
     62                      3                      0.672883721    10.976524399     8.860447146
     63                      3                      1.846764401    12.904604020     7.399407904
     64                      3                      3.048674180    11.020159698     5.133382098
     65                      3                      4.978012925    12.979752961     7.424422732
     66                      3                     -0.052499253    10.995153531     4.985170142
     67                      3                      5.245264994     9.159099725     7.758423031
     68                      3                     -0.889564343    12.870004641     7.682584424
     69                      3                      5.755487884    11.153155696     4.887276614
     70                      3                      9.114119392    10.949238537     4.987516410
     71                      3                      7.774470745    12.912284838     7.191528543
     72                      3                      0.974272128     1.042193291     9.544294079
     73                      3                      1.769403748     0.114411018    11.936440823
     74                      3                      3.511300406     0.122791795     9.849128460
     75                      3                      0.960486945     3.287737213    11.692284547
     76                      3                      4.158851477     2.111654534    11.692681608
     77                      3                      6.486548517     1.921887358    13.182128743
     78                      3                      7.425824654     2.147011196     9.746506299
     79                      3                     10.240193330     0.376979777     9.799351478
     80                      3                      7.152131464    -0.425601027    11.600310834
     81                      3                      9.370409641     3.880382444     9.758454219
     82                      3                      4.197537011     4.169338888     9.922620798
     83                      3                      1.029417173     5.893942209     9.880893321
     84                      3                      1.376177539     7.544395794    11.975749839
     85                      3                      3.121175906     7.500219161     9.895331894
     86                      3                      0.605695653     8.493847792     9.589053656
     87                      3                      0.297469764     5.634658518    13.264970058
     88                      3                      7.610419551     3.804673325    11.859880288
     89                      3                      6.817980408     4.726550394     9.466181397
     90                      3                      6.763427719     6.992120701    11.592008655
     91                      3                      9.937727713     5.836637874    11.668244322
     92                      3                      9.855771246     7.807349534     9.812671062
     93                      3                      3.792805896     9.494033994    11.701019884
     94                      3                      0.737117185    13.304957240     9.836747383
     95                      3                      3.816976851    11.559448984     9.918072648
     96                      3                     -0.063364111    13.077885814    13.246921842
     97                      3                      0.686021203    10.758462041    11.666403404
     98                      3                      1.398080324    11.341725069    14.486870429
     99                      3                      9.577803771    13.263620980    11.661386000
    100                      3                      6.435124158    12.140523281     9.448421951
    101                      3                      6.102345585     9.378311247    13.176642085
    102                      3                      7.064478294     9.567378240     9.753942164
    103                      3                      8.998239598    11.313330525     9.743979549
    104                      3                      7.244722196    11.244850578    11.850242540
    105                      3                      9.567560223    12.972857677    14.798490939
    106                      3                      4.179370139     1.815330752    14.807406758
    107                      3                      1.026271306     0.601802652    14.797371950
    108                      3                      1.102465866     2.824523576    16.868440918
    109                      3                      1.290059475     0.351986903    17.581128901
    110                      3                      2.699350857     2.129667115    18.984919200
    111                      3                      4.599958817    -0.311189284    16.597140124
    112                      3                     -0.049370485     2.106303175    19.153489545
    113                      3                      1.761016621     3.870672808    14.481455964
    114                      3                      5.854362602     2.144977487    18.885978876
    115                      3                      7.908285988     0.156698389    14.455502628
    116                      3                      9.631875352     0.386032774    16.581041115
    117                      3                      7.319208795     1.710051855    16.564689430
    118                      3                      8.538102645     2.220986519    18.924999121
    119                      3                     10.372057444     3.397237389    16.574760335
    120                      3                      7.260493476    -0.888468160    16.850031737
    121                      3                      3.494557806     4.066882517    16.586419483
    122                      3                      0.630994279     8.037725214    14.788022973
    123                      3                      1.203752419     5.433898713    16.586780448
    124                      3                      2.450028913     5.915987523    18.926406882
    125                      3                      0.977624800     7.771441926    17.536730288
    126                      3                      4.217479113     7.175972947    16.594757760
    127                      3                      3.808314190     9.294281232    14.824372082
    128                      3                     -0.248095136     5.839473746    18.916299880
    129                      3                      7.523962365     7.605015279    14.413919537
    130                      3                      9.917465916     5.526571887    14.788600516
    131                      3                      6.765498235     4.306047972    14.703990476
    132                      3                      5.764299299     5.798302176    19.080791328
    133                      3                      7.058772767     4.053700491    17.472586926
    134                      3                      6.858421221     6.536819070    16.781195839
    135                      3                      8.525236768     5.818223586    18.819164378
    136                      3                      9.247181379     7.826867953    16.530289529
    137                      3                      2.319344787     9.567339714    18.978999385
    138                      3                      0.747498418    10.246234494    16.837073118
    139                      3                      3.115147860    11.565230813    16.604034543
    140                      3                      0.793123151    12.859900741    16.633453136
    141                      3                      2.027060109    13.352298680    18.994556948
    142                      3                     -0.656058026    13.255373148    18.964669101
    143                      3                     -0.418829993     9.496128150    19.098442484
    144                      3                      6.947577384     9.145973194    16.552488836
    145                      3                      5.370190424    13.202378104    19.124070951
    146                      3                      5.502326852     9.535569365    18.892295752
    147                      3                      6.415056733    11.745269446    14.720558739
    148                      3                      6.706290131    11.480589799    17.506842441
    149                      3                      8.094779727    13.222614993    18.997733434
    150                      3                     10.001137698    10.857727650    16.603529193
    151                      3                      8.184115796     9.645668860    18.915722337
    152                      3                      3.689446905     2.147707827    22.892430320
    153                      3                      2.324284230     0.276405000    21.627178133
    154                      3                      4.035911463    -0.180967544    23.723370219
    155                      3                      5.039268865     0.408919716    21.257911618
    156                      3                      0.104743483     2.568949244    23.708678970
    157                      3                      4.912590401     3.980806446    21.337901315
    158                      3                     11.175607928     0.230053483    21.357934835
    159                      3                     10.031338276     0.721095872    23.801591190
    160                      3                      8.494388633     0.306780990    21.492177471
    161                      3                      9.418156822     3.299163537    23.550720977
    162                      3                      6.646828352     1.559509832    23.667529036
    163                      3                      2.223949123     4.020106824    21.599419975
    164                      3                      3.827208921     4.444739230    23.820650107
    165                      3                      0.552032424     5.234783585    23.739216553
    166                      3                      3.383891451     7.046904211    23.652079763
    167                      3                      1.932262689     7.731768246    21.517336685
    168                      3                      4.671120480     7.734723267    21.335157986
    169                      3                      7.981429896     4.082496807    21.478641309
    170                      3                     10.728112577     4.122958187    21.289495997
    171                      3                      5.863665673     6.232715836    23.903310940
    172                      3                     10.716205365     7.611272552    21.312381136
    173                      3                      9.385489306     5.853244922    22.901201753
    174                      3                      9.305304310     8.377964978    23.532925436
    175                      3                      8.002547317     7.601956122    21.356021724
    176                      3                      6.549470804     8.985916635    23.662511632
    177                      3                     -0.168830439     9.485272134    23.726618898
    178                      3                      0.862591391    -1.377203384    24.058381218
    179                      3                      3.563754293    11.963121917    23.734884981
    180                      3                      3.359865070     9.520552234    22.914882301
    181                      3                      1.945812160    11.401111440    21.594077703
    182                      3                      4.648283733    11.296101261    21.327866506
    183                      3                      6.487361386    -1.225665100    23.579995185
    184                      3                     10.549837312    11.435304877    21.351545766
    185                      3                      9.141888407    13.255624633    22.835217473
    186                      3                      9.543858277    10.996496637    23.835413548
    187                      3                      7.833597851    11.290093863    21.650568621
    188                      3                      1.732780157     1.049708317    25.144811674
    189                      3                      3.894874991     0.354254035    27.147694479
    190                      3                      1.032516003    -0.344107063    27.365572552
    191                      3                      4.831557615     3.550698804    28.863718928
    192                      3                      3.034064067     3.586806022    26.747168453
    193                      3                      0.138594707     3.802494279    27.335107162
    194                      3                      6.039607480     2.197547634    26.746446525
    195                      3                     10.348925843     0.019680619    26.937649333
    196                      3                     10.357076431     2.374228140    25.862986315
    197                      3                      7.528823638    -0.329809794    27.616117897
    198                      3                      8.261137756     3.621606731    26.516728822
    199                      3                      1.970967257     7.423910116    26.786080409
    200                      3                      4.059418328     5.911434759    26.009032485
    201                      3                     -0.543938755     6.157411547    26.118332485
    202                      3                      5.526100298     6.038677457    28.269968693
    203                      3                      8.153225417     5.939807950    25.272593048
    204                      3                      8.166737184     5.779798927    28.316352611
    205                      3                     10.845533423     7.620280290    28.663203240
    206                      3                      5.333144240     8.342430563    29.546699546
    207                      3                      7.337552623     8.748721066    27.604675328
    208                      3                     -0.721927211     5.095180147    29.572364111
    209                      3                      3.411537390     9.514953116    28.134282200
    210                      3                      2.111845679     9.621326349    25.284216100
    211                      3                      1.395533015    12.323562927    26.454859535
    212                      3                      4.235533286    13.349031853    25.825337735
    213                      3                      4.849200264    12.285635225    28.386668463
    214                      3                     10.074425833     9.322650759    25.885618779
    215                      3                      7.369819728    12.885213998    25.459644767
    216                      3                      5.919660817    10.521740753    25.871829941
    217                      3                     10.566979750    11.730888171    26.677502337
    218                      3                      6.786173901     0.455688525    34.281216054
    219                      3                      2.635844662     4.338736692    33.897113905
    220                      3                     -0.702218393    12.740907390    28.995543103
    221                      3                      3.622798547    10.806257971    34.100878272
    222                      3                      9.605018454    13.043476603    35.179945055
    223                      3                      8.616702170    10.545302136    33.779547821
    224                      4                      2.028382280     1.674605166     1.870842052
    225                      4                      3.464509224     1.096403710     0.265236593
    226                      4                      1.920499525    -0.463057492    36.013808765
    227                      4                      0.621544752     1.993459877     2.486069665
    228                      4                      4.243395911     2.441862953    36.228936433
    229                      4                      5.731792569     0.604546735    35.910861737
    230                      4                     -0.280701441    -0.681822814    35.089162525
    231                      4                     -0.628460884     1.506965496    35.328445783
    232                      4                      9.844479276     1.218372551     1.571674811
    233                      4                      9.951890825     1.648765506    36.073079109
    234                      4                      8.337527377     1.532346893     1.388774183
    235                      4                      7.528191565     3.609654249     2.460008040
    236                      4                      1.523478393     4.393411477     2.540250411
    237                      4                      1.374414251     6.509363284     0.294113740
    238                      4                      1.814621313     7.894017752     0.873641980
    239                      4                      3.419900751     3.411852706    35.232718041
    240                      4                     -0.723479373     3.493240283    36.133244788
    241                      4                      7.258810596     6.962554976     0.703555585
    242                      4                      8.861468592     4.451438180     2.385216229
    243                      4                      7.099901007     5.516930295     1.309470318
    244                      4                      7.801969164     8.789880167     1.518901825
    245                      4                      9.141277769     8.000127272     1.246806910
    246                      4                      0.280579064     9.291449415     2.429145589
    247                      4                      1.544921626    10.173724640     2.199897140
    248                      4                      0.328397238    11.425636383    36.243483296
    249                      4                      1.764512048     9.965658618    36.014169730
    250                      4                      5.284236341     8.408794512    36.062141890
    251                      4                      5.486846533    11.215235715    36.176380026
    252                      4                      9.736216907    -1.317504589    35.789758203
    253                      4                      5.968242484    12.962451962     1.407291653
    254                      4                      8.406309321    12.147914081     2.249096579
    255                      4                      7.179516123    11.192663631     2.491195358
    256                      4                     10.183006684    12.467454092    35.771854372
    257                      4                      3.961127391     0.788041116    10.437175458
    258                      4                      0.947048886     3.335652170    10.704613934
    259                      4                      5.040590194     2.018914138    12.140385673
    260                      4                      4.212921405     2.917674971    11.104706802
    261                      4                      5.034156608     1.880241068    14.309420362
    262                      4                      0.876491657    -0.317161822    14.480842324
    263                      4                     11.137110617     0.808912801     9.832921161
    264                      4                      6.865168406     0.461679174    11.906444687
    265                      4                      9.582022973     1.070056122    10.011309735
    266                      4                      7.110295195     1.274234774    13.684915966
    267                      4                      7.035333627     2.622201715    12.645446970
    268                      4                      7.170513502    -0.375355336    10.612640221
    269                      4                     10.348912139    -0.798116826    11.042259973
    270                      4                      6.649114735     3.384166842    14.380458143
    271                      4                      9.823155196     4.536590672    10.350363535
    272                      4                      0.669078716     4.171085480    12.005024047
    273                      4                      3.633524173     4.930883115    10.162986949
    274                      4                      0.831711644     6.357895121    12.741752255
    275                      4                      3.579263604     8.158535829    10.487710465
    276                      4                      0.936876920     4.988477856    13.748409592
    277                      4                      5.135096296     4.517470081     9.896414787
    278                      4                      0.491669097     7.118737555    14.466945197
    279                      4                     10.743591245     8.254750003     9.855445335
    280                      4                      6.494923865     7.885787214    11.893161199
    281                      4                      6.799256027     7.044856366    10.604951681
    282                      4                     10.817429627     5.764468862    12.117536630
    283                      4                      9.973888820     6.619904646    11.049768031
    284                      4                      9.183706486     8.488927224    10.021525026
    285                      4                     10.782481980     5.589835804    14.299241167
    286                      4                      6.728788947     8.719081223    13.663943938
    287                      4                      4.658817687     9.352667783    14.318408374
    288                      4                      1.209200588    -1.049655036    12.717206680
    289                      4                      3.230205934    12.299802154    10.169736982
    290                      4                      4.676468138     9.414684738    12.153524774
    291                      4                      0.655589923    10.788444098    10.679202044
    292                      4                      0.575626639    12.435198556    13.737436276
    293                      4                      4.746231092    11.929201417     9.900818552
    294                      4                      3.844427837    10.291030961    11.102360534
    295                      4                      0.369608836    11.636400619    11.969216385
    296                      4                     10.457903047    13.190650315    12.110678308
    297                      4                      9.452926217    11.969674141    10.333903561
    298                      4                      6.652046289    10.075500111    12.635881415
    299                      4                      6.279220496    10.826601880    14.394391366
    300                      4                     10.426159355    13.037630991    14.299168975
    301                      4                      4.293692723     1.030888966    15.406679747
    302                      4                      1.133025286     0.535269347    15.776920866
    303                      4                      5.568410701    -0.552295440    16.570609245
    304                      4                     -0.582516602     3.147696084    16.548879193
    305                      4                     10.163223639    -0.235092848    16.024217532
    306                      4                      9.914499499     2.549414312    16.388755414
    307                      4                      4.013798684     3.442929646    16.021618588
    308                      4                      0.763210520     7.960055106    15.764287114
    309                      4                      3.931075130     8.517783645    15.434185230
    310                      4                      3.723125688     6.356052509    16.386806206
    311                      4                      5.176215271     6.893148392    16.555376551
    312                      4                      6.880588761     4.234407447    15.683070139
    313                      4                     10.030598415     4.748684668    15.395814721
    314                      4                      9.774667562     7.191933571    15.985594348
    315                      4                      4.152160370    -1.164815545    16.408608452
    316                      4                      3.650165763    10.950297852    16.044251052
    317                      4                      6.529093556    11.671112591    15.698916473
    318                      4                     -0.957789540    10.597466938    16.561296366
    319                      4                      9.686749089    12.197970070    15.408087508
    320                      4                      9.530105848    10.021416515    16.399476054
    321                      4                      1.070998479     1.680167048    24.703316196
    322                      4                      1.248535225    -0.472225586    24.248320651
    323                      4                      6.705807596     0.554442485    23.657458131
    324                      4                      7.516436652     1.869274465    23.987993173
    325                      4                      0.402820819     4.225298635    23.749179169
    326                      4                      1.507061648     5.330469438    23.921142578
    327                      4                      6.628714389     6.036171522    24.529945026
    328                      4                      8.684118925     5.880865444    24.419850903
    329                      4                      6.176600145     8.074476964    23.770584354
    330                      4                      7.528107694     8.836221465    23.708570681
    331                      4                      0.572017104     9.561095015    24.396207739
    332                      4                      2.625859609     9.469676974    24.439090302
    333                      4                      0.732408007    12.891523030    24.585028183
    334                      4                      6.768238706    13.164450126    24.662815997
    335                      4                      1.352581153     0.655387962    25.995207551
    336                      4                      1.735864685     0.130337402    27.843633717
    337                      4                      0.488655751    -1.357826582    28.447779725
    338                      4                      4.318998399    -0.473392202    26.644546293
    339                      4                      4.508064082     0.520581600    27.880668658
    340                      4                      3.443371657     3.482928656    27.640230315
    341                      4                      1.083147472     3.632553991    27.101057887
    342                      4                     -0.435091460     3.175625141    26.773410561
    343                      4                      5.704833381     2.605852114    27.585074964
    344                      4                     11.286529679    -0.014846200    27.312438602
    345                      4                      7.087891824     0.490919080    27.296664461
    346                      4                      6.878643224     2.727264389    26.562787871
    347                      4                     10.306857492     0.966324050    26.541238300
    348                      4                      9.149746775     3.097878525    26.273727632
    349                      4                      8.492127167    -0.119203013    27.677012580
    350                      4                      3.382076272     4.504372244    26.451791338
    351                      4                      1.123592914     6.962553545    26.562643485
    352                      4                      2.729153511     6.817186738    26.497597712
    353                      4                      2.853923499     8.748485541    27.878322390
    354                      4                      2.081259032     8.733629037    25.759822708
    355                      4                     -0.234741192     8.028546905    28.393274110
    356                      4                      5.074242427     4.530991951    28.773947098
    357                      4                      5.051083739     6.111172067    27.380263801
    358                      4                      5.355009635     6.903359892    28.796832237
    359                      4                     -0.309629164     5.928439291    25.175638028
    360                      4                     -0.330342149     5.301054956    26.597729219
    361                      4                      8.390906006     4.082795109    27.374488371
    362                      4                     -0.826372794     6.721566773    29.019330653
    363                      4                     -0.317660770     4.381459358    29.003628704
    364                      4                      8.192649225     4.998927106    25.658319537
    365                      4                      7.152787622     5.891711846    28.302599869
    366                      4                      8.428882221     5.713833252    29.251936070
    367                      4                      6.714193639     8.619214580    28.373601554
    368                      4                      4.126692176     9.125691775    28.745286530
    369                      4                      0.558109137    11.807741669    26.517559040
    370                      4                      1.080928713    13.245309781    26.818892067
    371                      4                      5.149326769    11.884695028    29.220640463
    372                      4                      6.893233160     9.431898227    27.039260793
    373                      4                      5.503049836    12.984675765    28.166010965
    374                      4                      7.761431406    -1.401686457    26.208176508
    375                      4                      6.074844107     9.998654460    25.036955530
    376                      4                     10.687108248    11.960796968    27.653405513
    377                      4                     10.327459690    10.751049784    26.548674166
    378                      4                      6.481963274    11.340124382    25.753794603
    379                      4                      4.800808543     3.365814831    29.817819858
    380                      4                      0.718592593     0.117045791    34.182059151
    381                      4                      7.733307070     0.658381964    34.419718069
    382                      4                      2.413928787     5.272249139    34.093189732
    383                      4                      0.023388060    12.256114766    29.419604004
    384                      4                      2.811727532    10.903213138    34.803964604
    385                      4                      5.120492747    10.103574071    34.526058162
    386                      4                      6.716409143     9.914110919    34.629366155
    387                      4                      8.883044175    11.430995871    34.137588345
    388                      2                      5.511787752     1.864218496     2.139977060
    389                      2                     11.030408872     0.164761846     4.060632190
    390                      2                     10.787321508     3.276403134     4.156756993
    391                      2                     -0.388410785     5.423631110     2.136728381
    392                      2                     10.672714767     7.610878442     4.090953194
    393                      2                      5.171590617     9.348555201     2.232203448
    394                      2                     -0.516572571    12.905973022     2.201665865
    395                      2                      5.000109144    -0.320258860     4.200000520
    396                      2                      0.994147983     2.038159550     8.193060187
    397                      2                      7.108932573     1.416444170     8.271714316
    398                      2                      4.697562423     3.968108860     4.146722184
    399                      2                      4.657727429     7.047247034     4.287389986
    400                      2                      0.893476245     5.141031743     8.397943543
    401                      2                      6.813572557     5.722553739     8.104587828
    402                      2                      6.746162245     8.842855032     8.275721020
    403                      2                      4.323628457    11.380286116     4.194477766
    404                      2                      0.557190567    12.571692125     8.344484725
    405                      2                      0.636593645     9.441333798     8.202481356
    406                      2                     10.506159007    10.734787566     4.156540414
    407                      2                      6.436528728    13.149492920     8.094336441
    408                      2                      1.914811783    -0.055463996    10.361589526
    409                      2                      7.789986037     3.650725297    10.286545041
    410                      2                      1.516167110     7.368372934    10.401439989
    411                      2                      7.420029068    11.081620427    10.276546329
    412                      2                      1.285554912     1.886814485    18.247505160
    413                      2                      8.030740831     0.333348760    16.027754982
    414                      2                      7.200804264     2.482405286    18.035258131
    415                      2                      1.887530864     4.040975615    16.053022486
    416                      2                      1.095037668     6.183022536    18.071210179
    417                      2                      7.084137902     5.583540952    18.144233264
    418                      2                      7.643032893     7.769281664    15.988193291
    419                      2                      0.930224394     9.300553681    18.204081151
    420                      2                      1.509955390    11.500868277    16.060711026
    421                      2                      1.418314855    -1.230779718    18.115644889
    422                      2                      6.701276456    12.996589529    18.208521012
    423                      2                      6.838583601     9.895992136    18.035330324
    424                      2                      3.772312529     0.588344405    22.253884411
    425                      2                      3.641050591     3.718197542    22.307234940
    426                      2                     10.527539565     2.283487429    24.248356748
    427                      2                      9.868903988     0.002532801    22.286515587
    428                      2                      3.344594356     7.969041048    22.259984708
    429                      2                      4.289240206     5.921598157    24.424290765
    430                      2                      9.402513919     4.294921515    22.216849470
    431                      2                      9.374778335     7.373425060    22.184398777
    432                      2                      3.370459510    11.099062934    22.319904788
    433                      2                      4.276128272    13.398200777    24.218216226
    434                      2                     10.191733086     9.537558768    24.311597699
    435                      2                      9.252211876    11.662575189    22.306115950
    436                      1                      4.355155014     6.415842363     1.136279630
    437                      1                      2.939165682    13.283640186     1.487534025
    438                      1                      4.134491713    -0.079059793     7.477701068
    439                      1                      1.922731993     1.821318573     5.003723708
    440                      1                      4.125065282     3.593532384     7.382478676
    441                      1                      7.679329501     1.834407301     4.913771396
    442                      1                     10.294381680    -0.154102704     7.228058134
    443                      1                      9.922997317     3.586544074     7.358257969
    444                      1                      1.550067200     5.509250202     5.217739463
    445                      1                      3.768924131     7.323362120     7.534191986
    446                      1                      7.692120210     5.466896668     4.874137512
    447                      1                      9.900201116     7.268446342     7.257187956
    448                      1                      1.550873350     9.201059604     5.040361588
    449                      1                      3.747223290    11.005394716     7.405760876
    450                      1                      1.223845598    12.941579056     5.092773610
    451                      1                      7.349367997     9.271881128     4.921532129
    452                      1                      7.338699378    12.914158475     4.862947618
    453                      1                      9.581014474    11.018307412     7.341761899
    454                      1                      2.196600827     1.973998126    13.238403083
    455                      1                      7.975439097     5.678991722    13.185305230
    456                      1                      1.829196577     9.417183054    13.257389807
    457                      1                      7.626422947    13.107234800    13.187182244
    458                      1                      4.324632681     0.328252440    19.037764379
    459                      1                     10.125130053     0.350843527    19.173775740
    460                      1                      4.014924823     4.050319736    19.099308798
    461                      1                      3.939728976     7.750152624    19.054224353
    462                      1                     10.114163165     4.033760289    19.019535680
    463                      1                      9.750238400     7.755101493    19.086819432
    464                      1                      3.619597808    11.495129878    19.166736936
    465                      1                      9.756390355    11.436150509    19.072236473
    466                      1                      0.739031254     2.118235628    21.458463402
    467                      1                      6.845764942     2.083540005    21.160234669
    468                      1                      0.620931866     5.805312838    21.227482324
    469                      1                      6.411803267     5.823183632    21.349019016
    470                      1                      0.383553816    13.215838803    21.262820733
    471                      1                      0.402723867     9.527410881    21.345373276
    472                      1                      6.277324278    13.176836446    21.377138138
    473                      1                      6.473545665     9.482415915    21.144857588
    474                      1                      4.012438930     1.868960932    25.262161179
    475                      1                      9.253891814     7.468727771    26.854049993
    476                      1                      3.566813018    11.274392063    26.494349033
    477                      1                      9.704470934    13.284428232    25.141418609
    478                      5                      2.872747558     2.690818620    32.252921359
    479                      5                      1.680702008     1.980081708    31.962236780
    480                      5                      4.040292235     2.009980310    32.489425191
    481                      5                      1.643181038     0.566240777    32.058325486
    482                      5                      4.020803010     0.575775107    32.555517761
    483                      5                      2.806077477    -0.137486585    32.401241604
    484                      5                      0.525752979     2.682014162    31.587952861
    485                      5                      0.444000801    -0.158245178    31.836621191
    486                      5                      5.200133817    -0.144475673    32.626663831
    487                      5                      5.291438583     2.732636940    32.460656334
    488                      5                     11.242545792     1.958578453    31.460821222
    489                      5                     11.195219733     0.555058381    31.564995529
    490                      5                      7.677288532     2.721370920    32.137737640
    491                      5                      6.472800699     2.035625276    32.466070799
    492                      5                      8.837488839     2.001962049    31.837487506
    493                      5                     10.024701689     2.694627614    31.521138363
    494                      5                      6.499398485     0.572808522    32.803608548
    495                      5                      8.758459772     0.572113510    31.785292063
    496                      5                      7.582790446    -0.118738910    32.066880341
    497                      5                      9.950313800    -0.157448028    31.575102531
    498                      5                      0.586230428     4.110881513    31.440210159
    499                      5                      2.853516225     4.179277894    32.416402106
    500                      5                      1.711413866     4.823716134    31.741831957
    501                      5                      4.129543220     4.856314937    32.042587441
    502                      5                      1.778732427     6.256997528    31.693679315
    503                      5                      4.178851254     6.213105240    31.686748799
    504                      5                      0.593743559     6.967858763    31.772152961
    505                      5                      2.982027052     6.966767596    31.703966798
    506                      5                      0.645850854     8.354175808    32.088574297
    507                      5                      3.056727242     8.361281546    31.837198734
    508                      5                      5.307137915     4.139349003    32.179140249
    509                      5                     -0.603834552     6.261852209    31.612715014
    510                      5                      5.366901813     6.918949272    31.480890839
    511                      5                     -0.632403282     4.862054784    31.036579839
    512                      5                     10.064643099     4.099112250    31.464683541
    513                      5                      5.389276683     8.362908928    30.978175810
    514                      5                      7.711259199     4.120148403    32.008728986
    515                      5                      8.915151674     4.809715552    31.736092624
    516                      5                      6.514637061     4.843123848    32.009126047
    517                      5                      6.534870846     6.231114757    31.709814420
    518                      5                      8.928320453     6.237966733    31.740388100
    519                      5                      7.758177687     6.946050759    31.693607122
    520                      5                     10.150374541     6.944346091    31.808213298
    521                      5                      7.783303111     8.374871349    31.680865081
    522                      5                     10.159064288     8.355204424    32.064822844
    523                      5                      5.154704113    -1.542536355    32.470185792
    524                      5                      1.875324327     9.055417365    32.171379516
    525                      5                      4.235246682     9.103588310    31.595605305
    526                      5                      2.766787073    -1.555518385    32.507040251
    527                      5                      0.386353302    -1.568595604    32.038111483
    528                      5                      3.215145738    12.583322790    32.573565978
    529                      5                      0.798665157    12.576875143    32.383373870
    530                      5                      1.929976691    10.419954985    32.447842100
    531                      5                      0.753885898    11.158787694    32.431779187
    532                      5                      3.238636077    11.080556795    32.723654948
    533                      5                      4.306415697    10.454401071    31.884846027
    534                      5                     -0.479918060    10.469336750    32.319952436
    535                      5                     -0.535118895     9.060515467    32.233826346
    536                      5                      7.489345819    -1.511502329    31.843984864
    537                      5                      9.904659831    -1.545047792    31.652024030
    538                      5                      6.644971411     9.086108557    31.383791433
    539                      5                      8.984821592     9.049429761    32.005769079
    540                      5                      5.479776414    11.227092332    31.690611118
    541                      5                      5.565604578    12.598668191    32.034971093
    542                      5                     10.348262007    12.565073242    31.907261912
    543                      5                     10.273403288    11.202779230    32.153583974
    544                      5                      7.935803045    12.609922978    31.622894209
    545                      5                      6.681354539    10.515907333    31.454468250
    546                      5                      8.976319183    10.503851949    32.318039325
    547                      5                      7.875231627    11.210140399    31.644299394
